c *********************************
c * Circuit generated by BenCGen
c *
c * CarrySkipAdder_129_129_129_InOut_G4T
c *
c * Ports with 1 gate(s): 36
c * Ports with 2 gate(s): 712
c * Ports with 4 gate(s): 32
c * Total gates: 780
c *********************************
p cnf 1038 2626
1 390 0
-1 -390 0
1 -389 0
390 -389 0
-1 -390 389 0
1 130 -393 0
-1 130 393 0
1 -130 393 0
-1 -130 -393 0
393 389 -259 0
-393 389 259 0
393 -389 259 0
-393 -389 -259 0
389 -394 0
393 -394 0
-389 -393 394 0
130 -395 0
1 -395 0
-130 -1 395 0
-394 392 0
-395 392 0
394 395 -392 0
2 131 -397 0
-2 131 397 0
2 -131 397 0
-2 -131 -397 0
397 392 -260 0
-397 392 260 0
397 -392 260 0
-397 -392 -260 0
392 -398 0
397 -398 0
-392 -397 398 0
131 -399 0
2 -399 0
-131 -2 399 0
-398 396 0
-399 396 0
398 399 -396 0
3 132 -401 0
-3 132 401 0
3 -132 401 0
-3 -132 -401 0
401 396 -261 0
-401 396 261 0
401 -396 261 0
-401 -396 -261 0
396 -402 0
401 -402 0
-396 -401 402 0
132 -403 0
3 -403 0
-132 -3 403 0
-402 400 0
-403 400 0
402 403 -400 0
4 133 -404 0
-4 133 404 0
4 -133 404 0
-4 -133 -404 0
404 400 -262 0
-404 400 262 0
404 -400 262 0
-404 -400 -262 0
400 -405 0
404 -405 0
-400 -404 405 0
133 -406 0
4 -406 0
-133 -4 406 0
-405 391 0
-406 391 0
405 406 -391 0
393 -407 0
397 -407 0
401 -407 0
404 -407 0
-393 -397 -401 -404 407 0
406 -408 0
-406 408 0
389 -409 0
407 -409 0
-389 -407 409 0
-409 410 0
-391 410 0
409 391 -410 0
5 134 -413 0
-5 134 413 0
5 -134 413 0
-5 -134 -413 0
413 410 -263 0
-413 410 263 0
413 -410 263 0
-413 -410 -263 0
410 -414 0
413 -414 0
-410 -413 414 0
134 -415 0
5 -415 0
-134 -5 415 0
-414 412 0
-415 412 0
414 415 -412 0
6 135 -417 0
-6 135 417 0
6 -135 417 0
-6 -135 -417 0
417 412 -264 0
-417 412 264 0
417 -412 264 0
-417 -412 -264 0
412 -418 0
417 -418 0
-412 -417 418 0
135 -419 0
6 -419 0
-135 -6 419 0
-418 416 0
-419 416 0
418 419 -416 0
7 136 -421 0
-7 136 421 0
7 -136 421 0
-7 -136 -421 0
421 416 -265 0
-421 416 265 0
421 -416 265 0
-421 -416 -265 0
416 -422 0
421 -422 0
-416 -421 422 0
136 -423 0
7 -423 0
-136 -7 423 0
-422 420 0
-423 420 0
422 423 -420 0
8 137 -424 0
-8 137 424 0
8 -137 424 0
-8 -137 -424 0
424 420 -266 0
-424 420 266 0
424 -420 266 0
-424 -420 -266 0
420 -425 0
424 -425 0
-420 -424 425 0
137 -426 0
8 -426 0
-137 -8 426 0
-425 411 0
-426 411 0
425 426 -411 0
413 -427 0
417 -427 0
421 -427 0
424 -427 0
-413 -417 -421 -424 427 0
426 -428 0
-426 428 0
410 -429 0
427 -429 0
-410 -427 429 0
-429 430 0
-411 430 0
429 411 -430 0
9 138 -433 0
-9 138 433 0
9 -138 433 0
-9 -138 -433 0
433 430 -267 0
-433 430 267 0
433 -430 267 0
-433 -430 -267 0
430 -434 0
433 -434 0
-430 -433 434 0
138 -435 0
9 -435 0
-138 -9 435 0
-434 432 0
-435 432 0
434 435 -432 0
10 139 -437 0
-10 139 437 0
10 -139 437 0
-10 -139 -437 0
437 432 -268 0
-437 432 268 0
437 -432 268 0
-437 -432 -268 0
432 -438 0
437 -438 0
-432 -437 438 0
139 -439 0
10 -439 0
-139 -10 439 0
-438 436 0
-439 436 0
438 439 -436 0
11 140 -441 0
-11 140 441 0
11 -140 441 0
-11 -140 -441 0
441 436 -269 0
-441 436 269 0
441 -436 269 0
-441 -436 -269 0
436 -442 0
441 -442 0
-436 -441 442 0
140 -443 0
11 -443 0
-140 -11 443 0
-442 440 0
-443 440 0
442 443 -440 0
12 141 -444 0
-12 141 444 0
12 -141 444 0
-12 -141 -444 0
444 440 -270 0
-444 440 270 0
444 -440 270 0
-444 -440 -270 0
440 -445 0
444 -445 0
-440 -444 445 0
141 -446 0
12 -446 0
-141 -12 446 0
-445 431 0
-446 431 0
445 446 -431 0
433 -447 0
437 -447 0
441 -447 0
444 -447 0
-433 -437 -441 -444 447 0
446 -448 0
-446 448 0
430 -449 0
447 -449 0
-430 -447 449 0
-449 450 0
-431 450 0
449 431 -450 0
13 142 -453 0
-13 142 453 0
13 -142 453 0
-13 -142 -453 0
453 450 -271 0
-453 450 271 0
453 -450 271 0
-453 -450 -271 0
450 -454 0
453 -454 0
-450 -453 454 0
142 -455 0
13 -455 0
-142 -13 455 0
-454 452 0
-455 452 0
454 455 -452 0
14 143 -457 0
-14 143 457 0
14 -143 457 0
-14 -143 -457 0
457 452 -272 0
-457 452 272 0
457 -452 272 0
-457 -452 -272 0
452 -458 0
457 -458 0
-452 -457 458 0
143 -459 0
14 -459 0
-143 -14 459 0
-458 456 0
-459 456 0
458 459 -456 0
15 144 -461 0
-15 144 461 0
15 -144 461 0
-15 -144 -461 0
461 456 -273 0
-461 456 273 0
461 -456 273 0
-461 -456 -273 0
456 -462 0
461 -462 0
-456 -461 462 0
144 -463 0
15 -463 0
-144 -15 463 0
-462 460 0
-463 460 0
462 463 -460 0
16 145 -464 0
-16 145 464 0
16 -145 464 0
-16 -145 -464 0
464 460 -274 0
-464 460 274 0
464 -460 274 0
-464 -460 -274 0
460 -465 0
464 -465 0
-460 -464 465 0
145 -466 0
16 -466 0
-145 -16 466 0
-465 451 0
-466 451 0
465 466 -451 0
453 -467 0
457 -467 0
461 -467 0
464 -467 0
-453 -457 -461 -464 467 0
466 -468 0
-466 468 0
450 -469 0
467 -469 0
-450 -467 469 0
-469 470 0
-451 470 0
469 451 -470 0
17 146 -473 0
-17 146 473 0
17 -146 473 0
-17 -146 -473 0
473 470 -275 0
-473 470 275 0
473 -470 275 0
-473 -470 -275 0
470 -474 0
473 -474 0
-470 -473 474 0
146 -475 0
17 -475 0
-146 -17 475 0
-474 472 0
-475 472 0
474 475 -472 0
18 147 -477 0
-18 147 477 0
18 -147 477 0
-18 -147 -477 0
477 472 -276 0
-477 472 276 0
477 -472 276 0
-477 -472 -276 0
472 -478 0
477 -478 0
-472 -477 478 0
147 -479 0
18 -479 0
-147 -18 479 0
-478 476 0
-479 476 0
478 479 -476 0
19 148 -481 0
-19 148 481 0
19 -148 481 0
-19 -148 -481 0
481 476 -277 0
-481 476 277 0
481 -476 277 0
-481 -476 -277 0
476 -482 0
481 -482 0
-476 -481 482 0
148 -483 0
19 -483 0
-148 -19 483 0
-482 480 0
-483 480 0
482 483 -480 0
20 149 -484 0
-20 149 484 0
20 -149 484 0
-20 -149 -484 0
484 480 -278 0
-484 480 278 0
484 -480 278 0
-484 -480 -278 0
480 -485 0
484 -485 0
-480 -484 485 0
149 -486 0
20 -486 0
-149 -20 486 0
-485 471 0
-486 471 0
485 486 -471 0
473 -487 0
477 -487 0
481 -487 0
484 -487 0
-473 -477 -481 -484 487 0
486 -488 0
-486 488 0
470 -489 0
487 -489 0
-470 -487 489 0
-489 490 0
-471 490 0
489 471 -490 0
21 150 -493 0
-21 150 493 0
21 -150 493 0
-21 -150 -493 0
493 490 -279 0
-493 490 279 0
493 -490 279 0
-493 -490 -279 0
490 -494 0
493 -494 0
-490 -493 494 0
150 -495 0
21 -495 0
-150 -21 495 0
-494 492 0
-495 492 0
494 495 -492 0
22 151 -497 0
-22 151 497 0
22 -151 497 0
-22 -151 -497 0
497 492 -280 0
-497 492 280 0
497 -492 280 0
-497 -492 -280 0
492 -498 0
497 -498 0
-492 -497 498 0
151 -499 0
22 -499 0
-151 -22 499 0
-498 496 0
-499 496 0
498 499 -496 0
23 152 -501 0
-23 152 501 0
23 -152 501 0
-23 -152 -501 0
501 496 -281 0
-501 496 281 0
501 -496 281 0
-501 -496 -281 0
496 -502 0
501 -502 0
-496 -501 502 0
152 -503 0
23 -503 0
-152 -23 503 0
-502 500 0
-503 500 0
502 503 -500 0
24 153 -504 0
-24 153 504 0
24 -153 504 0
-24 -153 -504 0
504 500 -282 0
-504 500 282 0
504 -500 282 0
-504 -500 -282 0
500 -505 0
504 -505 0
-500 -504 505 0
153 -506 0
24 -506 0
-153 -24 506 0
-505 491 0
-506 491 0
505 506 -491 0
493 -507 0
497 -507 0
501 -507 0
504 -507 0
-493 -497 -501 -504 507 0
506 -508 0
-506 508 0
490 -509 0
507 -509 0
-490 -507 509 0
-509 510 0
-491 510 0
509 491 -510 0
25 154 -513 0
-25 154 513 0
25 -154 513 0
-25 -154 -513 0
513 510 -283 0
-513 510 283 0
513 -510 283 0
-513 -510 -283 0
510 -514 0
513 -514 0
-510 -513 514 0
154 -515 0
25 -515 0
-154 -25 515 0
-514 512 0
-515 512 0
514 515 -512 0
26 155 -517 0
-26 155 517 0
26 -155 517 0
-26 -155 -517 0
517 512 -284 0
-517 512 284 0
517 -512 284 0
-517 -512 -284 0
512 -518 0
517 -518 0
-512 -517 518 0
155 -519 0
26 -519 0
-155 -26 519 0
-518 516 0
-519 516 0
518 519 -516 0
27 156 -521 0
-27 156 521 0
27 -156 521 0
-27 -156 -521 0
521 516 -285 0
-521 516 285 0
521 -516 285 0
-521 -516 -285 0
516 -522 0
521 -522 0
-516 -521 522 0
156 -523 0
27 -523 0
-156 -27 523 0
-522 520 0
-523 520 0
522 523 -520 0
28 157 -524 0
-28 157 524 0
28 -157 524 0
-28 -157 -524 0
524 520 -286 0
-524 520 286 0
524 -520 286 0
-524 -520 -286 0
520 -525 0
524 -525 0
-520 -524 525 0
157 -526 0
28 -526 0
-157 -28 526 0
-525 511 0
-526 511 0
525 526 -511 0
513 -527 0
517 -527 0
521 -527 0
524 -527 0
-513 -517 -521 -524 527 0
526 -528 0
-526 528 0
510 -529 0
527 -529 0
-510 -527 529 0
-529 530 0
-511 530 0
529 511 -530 0
29 158 -533 0
-29 158 533 0
29 -158 533 0
-29 -158 -533 0
533 530 -287 0
-533 530 287 0
533 -530 287 0
-533 -530 -287 0
530 -534 0
533 -534 0
-530 -533 534 0
158 -535 0
29 -535 0
-158 -29 535 0
-534 532 0
-535 532 0
534 535 -532 0
30 159 -537 0
-30 159 537 0
30 -159 537 0
-30 -159 -537 0
537 532 -288 0
-537 532 288 0
537 -532 288 0
-537 -532 -288 0
532 -538 0
537 -538 0
-532 -537 538 0
159 -539 0
30 -539 0
-159 -30 539 0
-538 536 0
-539 536 0
538 539 -536 0
31 160 -541 0
-31 160 541 0
31 -160 541 0
-31 -160 -541 0
541 536 -289 0
-541 536 289 0
541 -536 289 0
-541 -536 -289 0
536 -542 0
541 -542 0
-536 -541 542 0
160 -543 0
31 -543 0
-160 -31 543 0
-542 540 0
-543 540 0
542 543 -540 0
32 161 -544 0
-32 161 544 0
32 -161 544 0
-32 -161 -544 0
544 540 -290 0
-544 540 290 0
544 -540 290 0
-544 -540 -290 0
540 -545 0
544 -545 0
-540 -544 545 0
161 -546 0
32 -546 0
-161 -32 546 0
-545 531 0
-546 531 0
545 546 -531 0
533 -547 0
537 -547 0
541 -547 0
544 -547 0
-533 -537 -541 -544 547 0
546 -548 0
-546 548 0
530 -549 0
547 -549 0
-530 -547 549 0
-549 550 0
-531 550 0
549 531 -550 0
33 162 -553 0
-33 162 553 0
33 -162 553 0
-33 -162 -553 0
553 550 -291 0
-553 550 291 0
553 -550 291 0
-553 -550 -291 0
550 -554 0
553 -554 0
-550 -553 554 0
162 -555 0
33 -555 0
-162 -33 555 0
-554 552 0
-555 552 0
554 555 -552 0
34 163 -557 0
-34 163 557 0
34 -163 557 0
-34 -163 -557 0
557 552 -292 0
-557 552 292 0
557 -552 292 0
-557 -552 -292 0
552 -558 0
557 -558 0
-552 -557 558 0
163 -559 0
34 -559 0
-163 -34 559 0
-558 556 0
-559 556 0
558 559 -556 0
35 164 -561 0
-35 164 561 0
35 -164 561 0
-35 -164 -561 0
561 556 -293 0
-561 556 293 0
561 -556 293 0
-561 -556 -293 0
556 -562 0
561 -562 0
-556 -561 562 0
164 -563 0
35 -563 0
-164 -35 563 0
-562 560 0
-563 560 0
562 563 -560 0
36 165 -564 0
-36 165 564 0
36 -165 564 0
-36 -165 -564 0
564 560 -294 0
-564 560 294 0
564 -560 294 0
-564 -560 -294 0
560 -565 0
564 -565 0
-560 -564 565 0
165 -566 0
36 -566 0
-165 -36 566 0
-565 551 0
-566 551 0
565 566 -551 0
553 -567 0
557 -567 0
561 -567 0
564 -567 0
-553 -557 -561 -564 567 0
566 -568 0
-566 568 0
550 -569 0
567 -569 0
-550 -567 569 0
-569 570 0
-551 570 0
569 551 -570 0
37 166 -573 0
-37 166 573 0
37 -166 573 0
-37 -166 -573 0
573 570 -295 0
-573 570 295 0
573 -570 295 0
-573 -570 -295 0
570 -574 0
573 -574 0
-570 -573 574 0
166 -575 0
37 -575 0
-166 -37 575 0
-574 572 0
-575 572 0
574 575 -572 0
38 167 -577 0
-38 167 577 0
38 -167 577 0
-38 -167 -577 0
577 572 -296 0
-577 572 296 0
577 -572 296 0
-577 -572 -296 0
572 -578 0
577 -578 0
-572 -577 578 0
167 -579 0
38 -579 0
-167 -38 579 0
-578 576 0
-579 576 0
578 579 -576 0
39 168 -581 0
-39 168 581 0
39 -168 581 0
-39 -168 -581 0
581 576 -297 0
-581 576 297 0
581 -576 297 0
-581 -576 -297 0
576 -582 0
581 -582 0
-576 -581 582 0
168 -583 0
39 -583 0
-168 -39 583 0
-582 580 0
-583 580 0
582 583 -580 0
40 169 -584 0
-40 169 584 0
40 -169 584 0
-40 -169 -584 0
584 580 -298 0
-584 580 298 0
584 -580 298 0
-584 -580 -298 0
580 -585 0
584 -585 0
-580 -584 585 0
169 -586 0
40 -586 0
-169 -40 586 0
-585 571 0
-586 571 0
585 586 -571 0
573 -587 0
577 -587 0
581 -587 0
584 -587 0
-573 -577 -581 -584 587 0
586 -588 0
-586 588 0
570 -589 0
587 -589 0
-570 -587 589 0
-589 590 0
-571 590 0
589 571 -590 0
41 170 -593 0
-41 170 593 0
41 -170 593 0
-41 -170 -593 0
593 590 -299 0
-593 590 299 0
593 -590 299 0
-593 -590 -299 0
590 -594 0
593 -594 0
-590 -593 594 0
170 -595 0
41 -595 0
-170 -41 595 0
-594 592 0
-595 592 0
594 595 -592 0
42 171 -597 0
-42 171 597 0
42 -171 597 0
-42 -171 -597 0
597 592 -300 0
-597 592 300 0
597 -592 300 0
-597 -592 -300 0
592 -598 0
597 -598 0
-592 -597 598 0
171 -599 0
42 -599 0
-171 -42 599 0
-598 596 0
-599 596 0
598 599 -596 0
43 172 -601 0
-43 172 601 0
43 -172 601 0
-43 -172 -601 0
601 596 -301 0
-601 596 301 0
601 -596 301 0
-601 -596 -301 0
596 -602 0
601 -602 0
-596 -601 602 0
172 -603 0
43 -603 0
-172 -43 603 0
-602 600 0
-603 600 0
602 603 -600 0
44 173 -604 0
-44 173 604 0
44 -173 604 0
-44 -173 -604 0
604 600 -302 0
-604 600 302 0
604 -600 302 0
-604 -600 -302 0
600 -605 0
604 -605 0
-600 -604 605 0
173 -606 0
44 -606 0
-173 -44 606 0
-605 591 0
-606 591 0
605 606 -591 0
593 -607 0
597 -607 0
601 -607 0
604 -607 0
-593 -597 -601 -604 607 0
606 -608 0
-606 608 0
590 -609 0
607 -609 0
-590 -607 609 0
-609 610 0
-591 610 0
609 591 -610 0
45 174 -613 0
-45 174 613 0
45 -174 613 0
-45 -174 -613 0
613 610 -303 0
-613 610 303 0
613 -610 303 0
-613 -610 -303 0
610 -614 0
613 -614 0
-610 -613 614 0
174 -615 0
45 -615 0
-174 -45 615 0
-614 612 0
-615 612 0
614 615 -612 0
46 175 -617 0
-46 175 617 0
46 -175 617 0
-46 -175 -617 0
617 612 -304 0
-617 612 304 0
617 -612 304 0
-617 -612 -304 0
612 -618 0
617 -618 0
-612 -617 618 0
175 -619 0
46 -619 0
-175 -46 619 0
-618 616 0
-619 616 0
618 619 -616 0
47 176 -621 0
-47 176 621 0
47 -176 621 0
-47 -176 -621 0
621 616 -305 0
-621 616 305 0
621 -616 305 0
-621 -616 -305 0
616 -622 0
621 -622 0
-616 -621 622 0
176 -623 0
47 -623 0
-176 -47 623 0
-622 620 0
-623 620 0
622 623 -620 0
48 177 -624 0
-48 177 624 0
48 -177 624 0
-48 -177 -624 0
624 620 -306 0
-624 620 306 0
624 -620 306 0
-624 -620 -306 0
620 -625 0
624 -625 0
-620 -624 625 0
177 -626 0
48 -626 0
-177 -48 626 0
-625 611 0
-626 611 0
625 626 -611 0
613 -627 0
617 -627 0
621 -627 0
624 -627 0
-613 -617 -621 -624 627 0
626 -628 0
-626 628 0
610 -629 0
627 -629 0
-610 -627 629 0
-629 630 0
-611 630 0
629 611 -630 0
49 178 -633 0
-49 178 633 0
49 -178 633 0
-49 -178 -633 0
633 630 -307 0
-633 630 307 0
633 -630 307 0
-633 -630 -307 0
630 -634 0
633 -634 0
-630 -633 634 0
178 -635 0
49 -635 0
-178 -49 635 0
-634 632 0
-635 632 0
634 635 -632 0
50 179 -637 0
-50 179 637 0
50 -179 637 0
-50 -179 -637 0
637 632 -308 0
-637 632 308 0
637 -632 308 0
-637 -632 -308 0
632 -638 0
637 -638 0
-632 -637 638 0
179 -639 0
50 -639 0
-179 -50 639 0
-638 636 0
-639 636 0
638 639 -636 0
51 180 -641 0
-51 180 641 0
51 -180 641 0
-51 -180 -641 0
641 636 -309 0
-641 636 309 0
641 -636 309 0
-641 -636 -309 0
636 -642 0
641 -642 0
-636 -641 642 0
180 -643 0
51 -643 0
-180 -51 643 0
-642 640 0
-643 640 0
642 643 -640 0
52 181 -644 0
-52 181 644 0
52 -181 644 0
-52 -181 -644 0
644 640 -310 0
-644 640 310 0
644 -640 310 0
-644 -640 -310 0
640 -645 0
644 -645 0
-640 -644 645 0
181 -646 0
52 -646 0
-181 -52 646 0
-645 631 0
-646 631 0
645 646 -631 0
633 -647 0
637 -647 0
641 -647 0
644 -647 0
-633 -637 -641 -644 647 0
646 -648 0
-646 648 0
630 -649 0
647 -649 0
-630 -647 649 0
-649 650 0
-631 650 0
649 631 -650 0
53 182 -653 0
-53 182 653 0
53 -182 653 0
-53 -182 -653 0
653 650 -311 0
-653 650 311 0
653 -650 311 0
-653 -650 -311 0
650 -654 0
653 -654 0
-650 -653 654 0
182 -655 0
53 -655 0
-182 -53 655 0
-654 652 0
-655 652 0
654 655 -652 0
54 183 -657 0
-54 183 657 0
54 -183 657 0
-54 -183 -657 0
657 652 -312 0
-657 652 312 0
657 -652 312 0
-657 -652 -312 0
652 -658 0
657 -658 0
-652 -657 658 0
183 -659 0
54 -659 0
-183 -54 659 0
-658 656 0
-659 656 0
658 659 -656 0
55 184 -661 0
-55 184 661 0
55 -184 661 0
-55 -184 -661 0
661 656 -313 0
-661 656 313 0
661 -656 313 0
-661 -656 -313 0
656 -662 0
661 -662 0
-656 -661 662 0
184 -663 0
55 -663 0
-184 -55 663 0
-662 660 0
-663 660 0
662 663 -660 0
56 185 -664 0
-56 185 664 0
56 -185 664 0
-56 -185 -664 0
664 660 -314 0
-664 660 314 0
664 -660 314 0
-664 -660 -314 0
660 -665 0
664 -665 0
-660 -664 665 0
185 -666 0
56 -666 0
-185 -56 666 0
-665 651 0
-666 651 0
665 666 -651 0
653 -667 0
657 -667 0
661 -667 0
664 -667 0
-653 -657 -661 -664 667 0
666 -668 0
-666 668 0
650 -669 0
667 -669 0
-650 -667 669 0
-669 670 0
-651 670 0
669 651 -670 0
57 186 -673 0
-57 186 673 0
57 -186 673 0
-57 -186 -673 0
673 670 -315 0
-673 670 315 0
673 -670 315 0
-673 -670 -315 0
670 -674 0
673 -674 0
-670 -673 674 0
186 -675 0
57 -675 0
-186 -57 675 0
-674 672 0
-675 672 0
674 675 -672 0
58 187 -677 0
-58 187 677 0
58 -187 677 0
-58 -187 -677 0
677 672 -316 0
-677 672 316 0
677 -672 316 0
-677 -672 -316 0
672 -678 0
677 -678 0
-672 -677 678 0
187 -679 0
58 -679 0
-187 -58 679 0
-678 676 0
-679 676 0
678 679 -676 0
59 188 -681 0
-59 188 681 0
59 -188 681 0
-59 -188 -681 0
681 676 -317 0
-681 676 317 0
681 -676 317 0
-681 -676 -317 0
676 -682 0
681 -682 0
-676 -681 682 0
188 -683 0
59 -683 0
-188 -59 683 0
-682 680 0
-683 680 0
682 683 -680 0
60 189 -684 0
-60 189 684 0
60 -189 684 0
-60 -189 -684 0
684 680 -318 0
-684 680 318 0
684 -680 318 0
-684 -680 -318 0
680 -685 0
684 -685 0
-680 -684 685 0
189 -686 0
60 -686 0
-189 -60 686 0
-685 671 0
-686 671 0
685 686 -671 0
673 -687 0
677 -687 0
681 -687 0
684 -687 0
-673 -677 -681 -684 687 0
686 -688 0
-686 688 0
670 -689 0
687 -689 0
-670 -687 689 0
-689 690 0
-671 690 0
689 671 -690 0
61 190 -693 0
-61 190 693 0
61 -190 693 0
-61 -190 -693 0
693 690 -319 0
-693 690 319 0
693 -690 319 0
-693 -690 -319 0
690 -694 0
693 -694 0
-690 -693 694 0
190 -695 0
61 -695 0
-190 -61 695 0
-694 692 0
-695 692 0
694 695 -692 0
62 191 -697 0
-62 191 697 0
62 -191 697 0
-62 -191 -697 0
697 692 -320 0
-697 692 320 0
697 -692 320 0
-697 -692 -320 0
692 -698 0
697 -698 0
-692 -697 698 0
191 -699 0
62 -699 0
-191 -62 699 0
-698 696 0
-699 696 0
698 699 -696 0
63 192 -701 0
-63 192 701 0
63 -192 701 0
-63 -192 -701 0
701 696 -321 0
-701 696 321 0
701 -696 321 0
-701 -696 -321 0
696 -702 0
701 -702 0
-696 -701 702 0
192 -703 0
63 -703 0
-192 -63 703 0
-702 700 0
-703 700 0
702 703 -700 0
64 193 -704 0
-64 193 704 0
64 -193 704 0
-64 -193 -704 0
704 700 -322 0
-704 700 322 0
704 -700 322 0
-704 -700 -322 0
700 -705 0
704 -705 0
-700 -704 705 0
193 -706 0
64 -706 0
-193 -64 706 0
-705 691 0
-706 691 0
705 706 -691 0
693 -707 0
697 -707 0
701 -707 0
704 -707 0
-693 -697 -701 -704 707 0
706 -708 0
-706 708 0
690 -709 0
707 -709 0
-690 -707 709 0
-709 710 0
-691 710 0
709 691 -710 0
65 194 -713 0
-65 194 713 0
65 -194 713 0
-65 -194 -713 0
713 710 -323 0
-713 710 323 0
713 -710 323 0
-713 -710 -323 0
710 -714 0
713 -714 0
-710 -713 714 0
194 -715 0
65 -715 0
-194 -65 715 0
-714 712 0
-715 712 0
714 715 -712 0
66 195 -717 0
-66 195 717 0
66 -195 717 0
-66 -195 -717 0
717 712 -324 0
-717 712 324 0
717 -712 324 0
-717 -712 -324 0
712 -718 0
717 -718 0
-712 -717 718 0
195 -719 0
66 -719 0
-195 -66 719 0
-718 716 0
-719 716 0
718 719 -716 0
67 196 -721 0
-67 196 721 0
67 -196 721 0
-67 -196 -721 0
721 716 -325 0
-721 716 325 0
721 -716 325 0
-721 -716 -325 0
716 -722 0
721 -722 0
-716 -721 722 0
196 -723 0
67 -723 0
-196 -67 723 0
-722 720 0
-723 720 0
722 723 -720 0
68 197 -724 0
-68 197 724 0
68 -197 724 0
-68 -197 -724 0
724 720 -326 0
-724 720 326 0
724 -720 326 0
-724 -720 -326 0
720 -725 0
724 -725 0
-720 -724 725 0
197 -726 0
68 -726 0
-197 -68 726 0
-725 711 0
-726 711 0
725 726 -711 0
713 -727 0
717 -727 0
721 -727 0
724 -727 0
-713 -717 -721 -724 727 0
726 -728 0
-726 728 0
710 -729 0
727 -729 0
-710 -727 729 0
-729 730 0
-711 730 0
729 711 -730 0
69 198 -733 0
-69 198 733 0
69 -198 733 0
-69 -198 -733 0
733 730 -327 0
-733 730 327 0
733 -730 327 0
-733 -730 -327 0
730 -734 0
733 -734 0
-730 -733 734 0
198 -735 0
69 -735 0
-198 -69 735 0
-734 732 0
-735 732 0
734 735 -732 0
70 199 -737 0
-70 199 737 0
70 -199 737 0
-70 -199 -737 0
737 732 -328 0
-737 732 328 0
737 -732 328 0
-737 -732 -328 0
732 -738 0
737 -738 0
-732 -737 738 0
199 -739 0
70 -739 0
-199 -70 739 0
-738 736 0
-739 736 0
738 739 -736 0
71 200 -741 0
-71 200 741 0
71 -200 741 0
-71 -200 -741 0
741 736 -329 0
-741 736 329 0
741 -736 329 0
-741 -736 -329 0
736 -742 0
741 -742 0
-736 -741 742 0
200 -743 0
71 -743 0
-200 -71 743 0
-742 740 0
-743 740 0
742 743 -740 0
72 201 -744 0
-72 201 744 0
72 -201 744 0
-72 -201 -744 0
744 740 -330 0
-744 740 330 0
744 -740 330 0
-744 -740 -330 0
740 -745 0
744 -745 0
-740 -744 745 0
201 -746 0
72 -746 0
-201 -72 746 0
-745 731 0
-746 731 0
745 746 -731 0
733 -747 0
737 -747 0
741 -747 0
744 -747 0
-733 -737 -741 -744 747 0
746 -748 0
-746 748 0
730 -749 0
747 -749 0
-730 -747 749 0
-749 750 0
-731 750 0
749 731 -750 0
73 202 -753 0
-73 202 753 0
73 -202 753 0
-73 -202 -753 0
753 750 -331 0
-753 750 331 0
753 -750 331 0
-753 -750 -331 0
750 -754 0
753 -754 0
-750 -753 754 0
202 -755 0
73 -755 0
-202 -73 755 0
-754 752 0
-755 752 0
754 755 -752 0
74 203 -757 0
-74 203 757 0
74 -203 757 0
-74 -203 -757 0
757 752 -332 0
-757 752 332 0
757 -752 332 0
-757 -752 -332 0
752 -758 0
757 -758 0
-752 -757 758 0
203 -759 0
74 -759 0
-203 -74 759 0
-758 756 0
-759 756 0
758 759 -756 0
75 204 -761 0
-75 204 761 0
75 -204 761 0
-75 -204 -761 0
761 756 -333 0
-761 756 333 0
761 -756 333 0
-761 -756 -333 0
756 -762 0
761 -762 0
-756 -761 762 0
204 -763 0
75 -763 0
-204 -75 763 0
-762 760 0
-763 760 0
762 763 -760 0
76 205 -764 0
-76 205 764 0
76 -205 764 0
-76 -205 -764 0
764 760 -334 0
-764 760 334 0
764 -760 334 0
-764 -760 -334 0
760 -765 0
764 -765 0
-760 -764 765 0
205 -766 0
76 -766 0
-205 -76 766 0
-765 751 0
-766 751 0
765 766 -751 0
753 -767 0
757 -767 0
761 -767 0
764 -767 0
-753 -757 -761 -764 767 0
766 -768 0
-766 768 0
750 -769 0
767 -769 0
-750 -767 769 0
-769 770 0
-751 770 0
769 751 -770 0
77 206 -773 0
-77 206 773 0
77 -206 773 0
-77 -206 -773 0
773 770 -335 0
-773 770 335 0
773 -770 335 0
-773 -770 -335 0
770 -774 0
773 -774 0
-770 -773 774 0
206 -775 0
77 -775 0
-206 -77 775 0
-774 772 0
-775 772 0
774 775 -772 0
78 207 -777 0
-78 207 777 0
78 -207 777 0
-78 -207 -777 0
777 772 -336 0
-777 772 336 0
777 -772 336 0
-777 -772 -336 0
772 -778 0
777 -778 0
-772 -777 778 0
207 -779 0
78 -779 0
-207 -78 779 0
-778 776 0
-779 776 0
778 779 -776 0
79 208 -781 0
-79 208 781 0
79 -208 781 0
-79 -208 -781 0
781 776 -337 0
-781 776 337 0
781 -776 337 0
-781 -776 -337 0
776 -782 0
781 -782 0
-776 -781 782 0
208 -783 0
79 -783 0
-208 -79 783 0
-782 780 0
-783 780 0
782 783 -780 0
80 209 -784 0
-80 209 784 0
80 -209 784 0
-80 -209 -784 0
784 780 -338 0
-784 780 338 0
784 -780 338 0
-784 -780 -338 0
780 -785 0
784 -785 0
-780 -784 785 0
209 -786 0
80 -786 0
-209 -80 786 0
-785 771 0
-786 771 0
785 786 -771 0
773 -787 0
777 -787 0
781 -787 0
784 -787 0
-773 -777 -781 -784 787 0
786 -788 0
-786 788 0
770 -789 0
787 -789 0
-770 -787 789 0
-789 790 0
-771 790 0
789 771 -790 0
81 210 -793 0
-81 210 793 0
81 -210 793 0
-81 -210 -793 0
793 790 -339 0
-793 790 339 0
793 -790 339 0
-793 -790 -339 0
790 -794 0
793 -794 0
-790 -793 794 0
210 -795 0
81 -795 0
-210 -81 795 0
-794 792 0
-795 792 0
794 795 -792 0
82 211 -797 0
-82 211 797 0
82 -211 797 0
-82 -211 -797 0
797 792 -340 0
-797 792 340 0
797 -792 340 0
-797 -792 -340 0
792 -798 0
797 -798 0
-792 -797 798 0
211 -799 0
82 -799 0
-211 -82 799 0
-798 796 0
-799 796 0
798 799 -796 0
83 212 -801 0
-83 212 801 0
83 -212 801 0
-83 -212 -801 0
801 796 -341 0
-801 796 341 0
801 -796 341 0
-801 -796 -341 0
796 -802 0
801 -802 0
-796 -801 802 0
212 -803 0
83 -803 0
-212 -83 803 0
-802 800 0
-803 800 0
802 803 -800 0
84 213 -804 0
-84 213 804 0
84 -213 804 0
-84 -213 -804 0
804 800 -342 0
-804 800 342 0
804 -800 342 0
-804 -800 -342 0
800 -805 0
804 -805 0
-800 -804 805 0
213 -806 0
84 -806 0
-213 -84 806 0
-805 791 0
-806 791 0
805 806 -791 0
793 -807 0
797 -807 0
801 -807 0
804 -807 0
-793 -797 -801 -804 807 0
806 -808 0
-806 808 0
790 -809 0
807 -809 0
-790 -807 809 0
-809 810 0
-791 810 0
809 791 -810 0
85 214 -813 0
-85 214 813 0
85 -214 813 0
-85 -214 -813 0
813 810 -343 0
-813 810 343 0
813 -810 343 0
-813 -810 -343 0
810 -814 0
813 -814 0
-810 -813 814 0
214 -815 0
85 -815 0
-214 -85 815 0
-814 812 0
-815 812 0
814 815 -812 0
86 215 -817 0
-86 215 817 0
86 -215 817 0
-86 -215 -817 0
817 812 -344 0
-817 812 344 0
817 -812 344 0
-817 -812 -344 0
812 -818 0
817 -818 0
-812 -817 818 0
215 -819 0
86 -819 0
-215 -86 819 0
-818 816 0
-819 816 0
818 819 -816 0
87 216 -821 0
-87 216 821 0
87 -216 821 0
-87 -216 -821 0
821 816 -345 0
-821 816 345 0
821 -816 345 0
-821 -816 -345 0
816 -822 0
821 -822 0
-816 -821 822 0
216 -823 0
87 -823 0
-216 -87 823 0
-822 820 0
-823 820 0
822 823 -820 0
88 217 -824 0
-88 217 824 0
88 -217 824 0
-88 -217 -824 0
824 820 -346 0
-824 820 346 0
824 -820 346 0
-824 -820 -346 0
820 -825 0
824 -825 0
-820 -824 825 0
217 -826 0
88 -826 0
-217 -88 826 0
-825 811 0
-826 811 0
825 826 -811 0
813 -827 0
817 -827 0
821 -827 0
824 -827 0
-813 -817 -821 -824 827 0
826 -828 0
-826 828 0
810 -829 0
827 -829 0
-810 -827 829 0
-829 830 0
-811 830 0
829 811 -830 0
89 218 -833 0
-89 218 833 0
89 -218 833 0
-89 -218 -833 0
833 830 -347 0
-833 830 347 0
833 -830 347 0
-833 -830 -347 0
830 -834 0
833 -834 0
-830 -833 834 0
218 -835 0
89 -835 0
-218 -89 835 0
-834 832 0
-835 832 0
834 835 -832 0
90 219 -837 0
-90 219 837 0
90 -219 837 0
-90 -219 -837 0
837 832 -348 0
-837 832 348 0
837 -832 348 0
-837 -832 -348 0
832 -838 0
837 -838 0
-832 -837 838 0
219 -839 0
90 -839 0
-219 -90 839 0
-838 836 0
-839 836 0
838 839 -836 0
91 220 -841 0
-91 220 841 0
91 -220 841 0
-91 -220 -841 0
841 836 -349 0
-841 836 349 0
841 -836 349 0
-841 -836 -349 0
836 -842 0
841 -842 0
-836 -841 842 0
220 -843 0
91 -843 0
-220 -91 843 0
-842 840 0
-843 840 0
842 843 -840 0
92 221 -844 0
-92 221 844 0
92 -221 844 0
-92 -221 -844 0
844 840 -350 0
-844 840 350 0
844 -840 350 0
-844 -840 -350 0
840 -845 0
844 -845 0
-840 -844 845 0
221 -846 0
92 -846 0
-221 -92 846 0
-845 831 0
-846 831 0
845 846 -831 0
833 -847 0
837 -847 0
841 -847 0
844 -847 0
-833 -837 -841 -844 847 0
846 -848 0
-846 848 0
830 -849 0
847 -849 0
-830 -847 849 0
-849 850 0
-831 850 0
849 831 -850 0
93 222 -853 0
-93 222 853 0
93 -222 853 0
-93 -222 -853 0
853 850 -351 0
-853 850 351 0
853 -850 351 0
-853 -850 -351 0
850 -854 0
853 -854 0
-850 -853 854 0
222 -855 0
93 -855 0
-222 -93 855 0
-854 852 0
-855 852 0
854 855 -852 0
94 223 -857 0
-94 223 857 0
94 -223 857 0
-94 -223 -857 0
857 852 -352 0
-857 852 352 0
857 -852 352 0
-857 -852 -352 0
852 -858 0
857 -858 0
-852 -857 858 0
223 -859 0
94 -859 0
-223 -94 859 0
-858 856 0
-859 856 0
858 859 -856 0
95 224 -861 0
-95 224 861 0
95 -224 861 0
-95 -224 -861 0
861 856 -353 0
-861 856 353 0
861 -856 353 0
-861 -856 -353 0
856 -862 0
861 -862 0
-856 -861 862 0
224 -863 0
95 -863 0
-224 -95 863 0
-862 860 0
-863 860 0
862 863 -860 0
96 225 -864 0
-96 225 864 0
96 -225 864 0
-96 -225 -864 0
864 860 -354 0
-864 860 354 0
864 -860 354 0
-864 -860 -354 0
860 -865 0
864 -865 0
-860 -864 865 0
225 -866 0
96 -866 0
-225 -96 866 0
-865 851 0
-866 851 0
865 866 -851 0
853 -867 0
857 -867 0
861 -867 0
864 -867 0
-853 -857 -861 -864 867 0
866 -868 0
-866 868 0
850 -869 0
867 -869 0
-850 -867 869 0
-869 870 0
-851 870 0
869 851 -870 0
97 226 -873 0
-97 226 873 0
97 -226 873 0
-97 -226 -873 0
873 870 -355 0
-873 870 355 0
873 -870 355 0
-873 -870 -355 0
870 -874 0
873 -874 0
-870 -873 874 0
226 -875 0
97 -875 0
-226 -97 875 0
-874 872 0
-875 872 0
874 875 -872 0
98 227 -877 0
-98 227 877 0
98 -227 877 0
-98 -227 -877 0
877 872 -356 0
-877 872 356 0
877 -872 356 0
-877 -872 -356 0
872 -878 0
877 -878 0
-872 -877 878 0
227 -879 0
98 -879 0
-227 -98 879 0
-878 876 0
-879 876 0
878 879 -876 0
99 228 -881 0
-99 228 881 0
99 -228 881 0
-99 -228 -881 0
881 876 -357 0
-881 876 357 0
881 -876 357 0
-881 -876 -357 0
876 -882 0
881 -882 0
-876 -881 882 0
228 -883 0
99 -883 0
-228 -99 883 0
-882 880 0
-883 880 0
882 883 -880 0
100 229 -884 0
-100 229 884 0
100 -229 884 0
-100 -229 -884 0
884 880 -358 0
-884 880 358 0
884 -880 358 0
-884 -880 -358 0
880 -885 0
884 -885 0
-880 -884 885 0
229 -886 0
100 -886 0
-229 -100 886 0
-885 871 0
-886 871 0
885 886 -871 0
873 -887 0
877 -887 0
881 -887 0
884 -887 0
-873 -877 -881 -884 887 0
886 -888 0
-886 888 0
870 -889 0
887 -889 0
-870 -887 889 0
-889 890 0
-871 890 0
889 871 -890 0
101 230 -893 0
-101 230 893 0
101 -230 893 0
-101 -230 -893 0
893 890 -359 0
-893 890 359 0
893 -890 359 0
-893 -890 -359 0
890 -894 0
893 -894 0
-890 -893 894 0
230 -895 0
101 -895 0
-230 -101 895 0
-894 892 0
-895 892 0
894 895 -892 0
102 231 -897 0
-102 231 897 0
102 -231 897 0
-102 -231 -897 0
897 892 -360 0
-897 892 360 0
897 -892 360 0
-897 -892 -360 0
892 -898 0
897 -898 0
-892 -897 898 0
231 -899 0
102 -899 0
-231 -102 899 0
-898 896 0
-899 896 0
898 899 -896 0
103 232 -901 0
-103 232 901 0
103 -232 901 0
-103 -232 -901 0
901 896 -361 0
-901 896 361 0
901 -896 361 0
-901 -896 -361 0
896 -902 0
901 -902 0
-896 -901 902 0
232 -903 0
103 -903 0
-232 -103 903 0
-902 900 0
-903 900 0
902 903 -900 0
104 233 -904 0
-104 233 904 0
104 -233 904 0
-104 -233 -904 0
904 900 -362 0
-904 900 362 0
904 -900 362 0
-904 -900 -362 0
900 -905 0
904 -905 0
-900 -904 905 0
233 -906 0
104 -906 0
-233 -104 906 0
-905 891 0
-906 891 0
905 906 -891 0
893 -907 0
897 -907 0
901 -907 0
904 -907 0
-893 -897 -901 -904 907 0
906 -908 0
-906 908 0
890 -909 0
907 -909 0
-890 -907 909 0
-909 910 0
-891 910 0
909 891 -910 0
105 234 -913 0
-105 234 913 0
105 -234 913 0
-105 -234 -913 0
913 910 -363 0
-913 910 363 0
913 -910 363 0
-913 -910 -363 0
910 -914 0
913 -914 0
-910 -913 914 0
234 -915 0
105 -915 0
-234 -105 915 0
-914 912 0
-915 912 0
914 915 -912 0
106 235 -917 0
-106 235 917 0
106 -235 917 0
-106 -235 -917 0
917 912 -364 0
-917 912 364 0
917 -912 364 0
-917 -912 -364 0
912 -918 0
917 -918 0
-912 -917 918 0
235 -919 0
106 -919 0
-235 -106 919 0
-918 916 0
-919 916 0
918 919 -916 0
107 236 -921 0
-107 236 921 0
107 -236 921 0
-107 -236 -921 0
921 916 -365 0
-921 916 365 0
921 -916 365 0
-921 -916 -365 0
916 -922 0
921 -922 0
-916 -921 922 0
236 -923 0
107 -923 0
-236 -107 923 0
-922 920 0
-923 920 0
922 923 -920 0
108 237 -924 0
-108 237 924 0
108 -237 924 0
-108 -237 -924 0
924 920 -366 0
-924 920 366 0
924 -920 366 0
-924 -920 -366 0
920 -925 0
924 -925 0
-920 -924 925 0
237 -926 0
108 -926 0
-237 -108 926 0
-925 911 0
-926 911 0
925 926 -911 0
913 -927 0
917 -927 0
921 -927 0
924 -927 0
-913 -917 -921 -924 927 0
926 -928 0
-926 928 0
910 -929 0
927 -929 0
-910 -927 929 0
-929 930 0
-911 930 0
929 911 -930 0
109 238 -933 0
-109 238 933 0
109 -238 933 0
-109 -238 -933 0
933 930 -367 0
-933 930 367 0
933 -930 367 0
-933 -930 -367 0
930 -934 0
933 -934 0
-930 -933 934 0
238 -935 0
109 -935 0
-238 -109 935 0
-934 932 0
-935 932 0
934 935 -932 0
110 239 -937 0
-110 239 937 0
110 -239 937 0
-110 -239 -937 0
937 932 -368 0
-937 932 368 0
937 -932 368 0
-937 -932 -368 0
932 -938 0
937 -938 0
-932 -937 938 0
239 -939 0
110 -939 0
-239 -110 939 0
-938 936 0
-939 936 0
938 939 -936 0
111 240 -941 0
-111 240 941 0
111 -240 941 0
-111 -240 -941 0
941 936 -369 0
-941 936 369 0
941 -936 369 0
-941 -936 -369 0
936 -942 0
941 -942 0
-936 -941 942 0
240 -943 0
111 -943 0
-240 -111 943 0
-942 940 0
-943 940 0
942 943 -940 0
112 241 -944 0
-112 241 944 0
112 -241 944 0
-112 -241 -944 0
944 940 -370 0
-944 940 370 0
944 -940 370 0
-944 -940 -370 0
940 -945 0
944 -945 0
-940 -944 945 0
241 -946 0
112 -946 0
-241 -112 946 0
-945 931 0
-946 931 0
945 946 -931 0
933 -947 0
937 -947 0
941 -947 0
944 -947 0
-933 -937 -941 -944 947 0
946 -948 0
-946 948 0
930 -949 0
947 -949 0
-930 -947 949 0
-949 950 0
-931 950 0
949 931 -950 0
113 242 -953 0
-113 242 953 0
113 -242 953 0
-113 -242 -953 0
953 950 -371 0
-953 950 371 0
953 -950 371 0
-953 -950 -371 0
950 -954 0
953 -954 0
-950 -953 954 0
242 -955 0
113 -955 0
-242 -113 955 0
-954 952 0
-955 952 0
954 955 -952 0
114 243 -957 0
-114 243 957 0
114 -243 957 0
-114 -243 -957 0
957 952 -372 0
-957 952 372 0
957 -952 372 0
-957 -952 -372 0
952 -958 0
957 -958 0
-952 -957 958 0
243 -959 0
114 -959 0
-243 -114 959 0
-958 956 0
-959 956 0
958 959 -956 0
115 244 -961 0
-115 244 961 0
115 -244 961 0
-115 -244 -961 0
961 956 -373 0
-961 956 373 0
961 -956 373 0
-961 -956 -373 0
956 -962 0
961 -962 0
-956 -961 962 0
244 -963 0
115 -963 0
-244 -115 963 0
-962 960 0
-963 960 0
962 963 -960 0
116 245 -964 0
-116 245 964 0
116 -245 964 0
-116 -245 -964 0
964 960 -374 0
-964 960 374 0
964 -960 374 0
-964 -960 -374 0
960 -965 0
964 -965 0
-960 -964 965 0
245 -966 0
116 -966 0
-245 -116 966 0
-965 951 0
-966 951 0
965 966 -951 0
953 -967 0
957 -967 0
961 -967 0
964 -967 0
-953 -957 -961 -964 967 0
966 -968 0
-966 968 0
950 -969 0
967 -969 0
-950 -967 969 0
-969 970 0
-951 970 0
969 951 -970 0
117 246 -973 0
-117 246 973 0
117 -246 973 0
-117 -246 -973 0
973 970 -375 0
-973 970 375 0
973 -970 375 0
-973 -970 -375 0
970 -974 0
973 -974 0
-970 -973 974 0
246 -975 0
117 -975 0
-246 -117 975 0
-974 972 0
-975 972 0
974 975 -972 0
118 247 -977 0
-118 247 977 0
118 -247 977 0
-118 -247 -977 0
977 972 -376 0
-977 972 376 0
977 -972 376 0
-977 -972 -376 0
972 -978 0
977 -978 0
-972 -977 978 0
247 -979 0
118 -979 0
-247 -118 979 0
-978 976 0
-979 976 0
978 979 -976 0
119 248 -981 0
-119 248 981 0
119 -248 981 0
-119 -248 -981 0
981 976 -377 0
-981 976 377 0
981 -976 377 0
-981 -976 -377 0
976 -982 0
981 -982 0
-976 -981 982 0
248 -983 0
119 -983 0
-248 -119 983 0
-982 980 0
-983 980 0
982 983 -980 0
120 249 -984 0
-120 249 984 0
120 -249 984 0
-120 -249 -984 0
984 980 -378 0
-984 980 378 0
984 -980 378 0
-984 -980 -378 0
980 -985 0
984 -985 0
-980 -984 985 0
249 -986 0
120 -986 0
-249 -120 986 0
-985 971 0
-986 971 0
985 986 -971 0
973 -987 0
977 -987 0
981 -987 0
984 -987 0
-973 -977 -981 -984 987 0
986 -988 0
-986 988 0
970 -989 0
987 -989 0
-970 -987 989 0
-989 990 0
-971 990 0
989 971 -990 0
121 250 -993 0
-121 250 993 0
121 -250 993 0
-121 -250 -993 0
993 990 -379 0
-993 990 379 0
993 -990 379 0
-993 -990 -379 0
990 -994 0
993 -994 0
-990 -993 994 0
250 -995 0
121 -995 0
-250 -121 995 0
-994 992 0
-995 992 0
994 995 -992 0
122 251 -997 0
-122 251 997 0
122 -251 997 0
-122 -251 -997 0
997 992 -380 0
-997 992 380 0
997 -992 380 0
-997 -992 -380 0
992 -998 0
997 -998 0
-992 -997 998 0
251 -999 0
122 -999 0
-251 -122 999 0
-998 996 0
-999 996 0
998 999 -996 0
123 252 -1001 0
-123 252 1001 0
123 -252 1001 0
-123 -252 -1001 0
1001 996 -381 0
-1001 996 381 0
1001 -996 381 0
-1001 -996 -381 0
996 -1002 0
1001 -1002 0
-996 -1001 1002 0
252 -1003 0
123 -1003 0
-252 -123 1003 0
-1002 1000 0
-1003 1000 0
1002 1003 -1000 0
124 253 -1004 0
-124 253 1004 0
124 -253 1004 0
-124 -253 -1004 0
1004 1000 -382 0
-1004 1000 382 0
1004 -1000 382 0
-1004 -1000 -382 0
1000 -1005 0
1004 -1005 0
-1000 -1004 1005 0
253 -1006 0
124 -1006 0
-253 -124 1006 0
-1005 991 0
-1006 991 0
1005 1006 -991 0
993 -1007 0
997 -1007 0
1001 -1007 0
1004 -1007 0
-993 -997 -1001 -1004 1007 0
1006 -1008 0
-1006 1008 0
990 -1009 0
1007 -1009 0
-990 -1007 1009 0
-1009 1010 0
-991 1010 0
1009 991 -1010 0
125 254 -1013 0
-125 254 1013 0
125 -254 1013 0
-125 -254 -1013 0
1013 1010 -383 0
-1013 1010 383 0
1013 -1010 383 0
-1013 -1010 -383 0
1010 -1014 0
1013 -1014 0
-1010 -1013 1014 0
254 -1015 0
125 -1015 0
-254 -125 1015 0
-1014 1012 0
-1015 1012 0
1014 1015 -1012 0
126 255 -1017 0
-126 255 1017 0
126 -255 1017 0
-126 -255 -1017 0
1017 1012 -384 0
-1017 1012 384 0
1017 -1012 384 0
-1017 -1012 -384 0
1012 -1018 0
1017 -1018 0
-1012 -1017 1018 0
255 -1019 0
126 -1019 0
-255 -126 1019 0
-1018 1016 0
-1019 1016 0
1018 1019 -1016 0
127 256 -1021 0
-127 256 1021 0
127 -256 1021 0
-127 -256 -1021 0
1021 1016 -385 0
-1021 1016 385 0
1021 -1016 385 0
-1021 -1016 -385 0
1016 -1022 0
1021 -1022 0
-1016 -1021 1022 0
256 -1023 0
127 -1023 0
-256 -127 1023 0
-1022 1020 0
-1023 1020 0
1022 1023 -1020 0
128 257 -1024 0
-128 257 1024 0
128 -257 1024 0
-128 -257 -1024 0
1024 1020 -386 0
-1024 1020 386 0
1024 -1020 386 0
-1024 -1020 -386 0
1020 -1025 0
1024 -1025 0
-1020 -1024 1025 0
257 -1026 0
128 -1026 0
-257 -128 1026 0
-1025 1011 0
-1026 1011 0
1025 1026 -1011 0
1013 -1027 0
1017 -1027 0
1021 -1027 0
1024 -1027 0
-1013 -1017 -1021 -1024 1027 0
1026 -1028 0
-1026 1028 0
1010 -1029 0
1027 -1029 0
-1010 -1027 1029 0
-1029 1030 0
-1011 1030 0
1029 1011 -1030 0
129 258 -1032 0
-129 258 1032 0
129 -258 1032 0
-129 -258 -1032 0
1032 1030 -387 0
-1032 1030 387 0
1032 -1030 387 0
-1032 -1030 -387 0
1030 -1033 0
1032 -1033 0
-1030 -1032 1033 0
258 -1034 0
129 -1034 0
-258 -129 1034 0
-1033 1031 0
-1034 1031 0
1033 1034 -1031 0
1032 -1035 0
-1032 1035 0
1034 -1036 0
-1034 1036 0
1030 -1037 0
1035 -1037 0
-1030 -1035 1037 0
-1037 1038 0
-1031 1038 0
1037 1031 -1038 0
1038 -388 0
-1038 388 0
